231 300 82 61 96 59 85 99 83 82 92 93 66 94 85 50 98 65 64 87 70 63 56 52 83 69 86 88 100 70 62 55 74 68 92 94 52 76 93 85 83 58 51 99 76 61 74 99 76 62 85 70 75 65 72 82 58 57 69 57 52 81 63 50 74 54 94 76 54 60 85 87 94 87 60 94 72 58 92 72 70 50 92 69 65 63 50 74 70 94 55 97 74 68 97 72 97 65 98 51 100 83 62 93 94 72 61 65 80 52 87 74 78 78 93 93 65 67 91 59 60 97 56 59 89 77 81 60 92 53 86 66 86 98 83 53 70 94 68 74 71 79 99 99 81 65 65 96 57 56 54 67 77 85 50 90 62 56 74 78 59 59 94 69 57 77 72 51 95 64 100 65 67 98 63 98 88 79 67 95 59 96 86 60 81 61 74 67 67 99 69 50 57 63 94 89 64 65 64 58 53 64 99 70 86 61 67 98 64 58 66 73 53 52 57 84 88 82 75 79 54 95 79 61 82 97 75 96 61 63 78 89 77 